param n := 120;
param c := 450
param : V : p w :=
   0	 107	  97
   1	  67	  57
   2	  91	  81
   3	  72	  62
   4	  85	  75
   5	  91	  81
   6	  33	  23
   7	  53	  43
   8	  60	  50
   9	  48	  38
  10	  70	  60
  11	  68	  58
  12	  80	  70
  13	  98	  88
  14	  46	  36
  15	 100	  90
  16	  47	  37
  17	  55	  45
  18	  55	  45
  19	  49	  39
  20	  54	  44
  21	  63	  53
  22	  80	  70
  23	  34	  24
  24	  92	  82
  25	  91	  81
  26	  57	  47
  27	 107	  97
  28	  45	  35
  29	  75	  65
  30	  84	  74
  31	  78	  68
  32	  59	  49
  33	  65	  55
  34	  62	  52
  35	 104	  94
  36	 105	  95
  37	  39	  29
  38	 109	  99
  39	  30	  20
  40	  32	  22
  41	  35	  25
  42	  59	  49
  43	  56	  46
  44	 108	  98
  45	  69	  59
  46	 108	  98
  47	  70	  60
  48	  33	  23
  49	  82	  72
  50	  43	  33
  51	 108	  98
  52	  90	  80
  53	 105	  95
  54	  88	  78
  55	  67	  57
  56	  77	  67
  57	  63	  53
  58	  57	  47
  59	  63	  53
  60	  46	  36
  61	  48	  38
  62	 102	  92
  63	  40	  30
  64	  90	  80
  65	  42	  32
  66	 107	  97
  67	  49	  39
  68	  90	  80
  69	  82	  72
  70	  65	  55
  71	  51	  41
  72	  70	  60
  73	  77	  67
  74	  63	  53
  75	  75	  65
  76	 105	  95
  77	  30	  20
  78	  76	  66
  79	  88	  78
  80	 108	  98
  81	  57	  47
  82	 110	 100
  83	  95	  85
  84	  63	  53
  85	  63	  53
  86	  77	  67
  87	  37	  27
  88	  32	  22
  89	  71	  61
  90	  53	  43
  91	  62	  52
  92	  86	  76
  93	  74	  64
  94	  71	  61
  95	  39	  29
  96	  40	  30
  97	  56	  46
  98	  89	  79
  99	  76	  66
 100	  37	  27
 101	  89	  79
 102	 108	  98
 103	 100	  90
 104	  32	  22
 105	  85	  75
 106	  67	  57
 107	  77	  67
 108	  46	  36
 109	  80	  70
 110	 109	  99
 111	  58	  48
 112	  53	  43
 113	  55	  45
 114	  81	  71
 115	 110	 100
 116	  98	  88
 117	  58	  48
 118	  37	  27
 119	  49	  39
;

set E :=
   0	   3
   0	   7
   0	   8
   0	  12
   0	  18
   0	  21
   0	  27
   0	  28
   0	  31
   0	  33
   0	  41
   0	  42
   0	  46
   0	  54
   0	  55
   0	  59
   0	  63
   0	  67
   0	  72
   0	  73
   0	  77
   0	  82
   0	  89
   0	  91
   0	  92
   0	  98
   0	  99
   0	 101
   0	 107
   0	 109
   0	 116
   0	 117
   1	   4
   1	   9
   1	  14
   1	  21
   1	  24
   1	  33
   1	  34
   1	  37
   1	  38
   1	  42
   1	  45
   1	  46
   1	  55
   1	  64
   1	  69
   1	  76
   1	  77
   1	  79
   1	  80
   1	  81
   1	  85
   1	  92
   1	  93
   1	 100
   1	 118
   2	   5
   2	  18
   2	  23
   2	  24
   2	  27
   2	  29
   2	  33
   2	  49
   2	  80
   2	  88
   2	  90
   2	  98
   2	 107
   2	 110
   3	  13
   3	  16
   3	  36
   3	  45
   3	  51
   3	  58
   3	  61
   3	  62
   3	  67
   3	  76
   3	  77
   3	  80
   3	  82
   3	  96
   3	 104
   3	 106
   4	  10
   4	  18
   4	  31
   4	  33
   4	  44
   4	  50
   4	  54
   4	  59
   4	  69
   4	  71
   4	  76
   4	  78
   4	  81
   4	  82
   4	  83
   4	  88
   4	  93
   4	 104
   4	 106
   4	 113
   4	 114
   5	   7
   5	   8
   5	  11
   5	  26
   5	  45
   5	  50
   5	  51
   5	  52
   5	  54
   5	  56
   5	  65
   5	  71
   5	  74
   5	  75
   5	  78
   5	  82
   5	  83
   5	  85
   5	  93
   5	  98
   5	 107
   5	 113
   5	 114
   5	 119
   6	   7
   6	   9
   6	  10
   6	  24
   6	  27
   6	  29
   6	  33
   6	  39
   6	  55
   6	  61
   6	  64
   6	  68
   6	  71
   6	  79
   6	  84
   6	  88
   6	  93
   6	  97
   6	 108
   6	 112
   6	 119
   7	  17
   7	  24
   7	  26
   7	  29
   7	  34
   7	  40
   7	  45
   7	  52
   7	  56
   7	  62
   7	  63
   7	  66
   7	  72
   7	  76
   7	  89
   7	 100
   7	 115
   8	  18
   8	  30
   8	  33
   8	  52
   8	  61
   8	  66
   8	  78
   8	  84
   8	  85
   8	  96
   8	 105
   8	 109
   8	 110
   8	 111
   8	 118
   9	  10
   9	  12
   9	  14
   9	  26
   9	  27
   9	  33
   9	  39
   9	  40
   9	  41
   9	  48
   9	  50
   9	  52
   9	  54
   9	  71
   9	  83
   9	  84
   9	 100
   9	 102
   9	 105
   9	 119
  10	  13
  10	  21
  10	  25
  10	  42
  10	  43
  10	  55
  10	  59
  10	  61
  10	  67
  10	  68
  10	  73
  10	  76
  10	  78
  10	  82
  10	  83
  10	  93
  10	  94
  10	  98
  10	 105
  11	  14
  11	  16
  11	  17
  11	  18
  11	  19
  11	  22
  11	  23
  11	  24
  11	  29
  11	  43
  11	  44
  11	  49
  11	  53
  11	  55
  11	  68
  11	  77
  11	  78
  11	  84
  11	  91
  11	  94
  11	 103
  11	 112
  11	 113
  12	  28
  12	  42
  12	  48
  12	  49
  12	  50
  12	  51
  12	  53
  12	  57
  12	  61
  12	  77
  12	  79
  12	  80
  12	  84
  12	  86
  12	  91
  12	  93
  12	  97
  12	  98
  12	 108
  12	 116
  13	  17
  13	  22
  13	  35
  13	  38
  13	  41
  13	  44
  13	  53
  13	  62
  13	  74
  13	  75
  13	  76
  13	  83
  13	  84
  13	  93
  13	  94
  13	  95
  13	  96
  13	 115
  13	 116
  14	  16
  14	  17
  14	  19
  14	  33
  14	  34
  14	  35
  14	  42
  14	  48
  14	  51
  14	  55
  14	  57
  14	  59
  14	  62
  14	  64
  14	  65
  14	  70
  14	  74
  14	  76
  14	  82
  14	  85
  14	  92
  14	  96
  14	 101
  14	 104
  14	 112
  14	 117
  15	  16
  15	  23
  15	  34
  15	  46
  15	  47
  15	  48
  15	  49
  15	  51
  15	  78
  15	  81
  15	  84
  15	  89
  15	 103
  15	 105
  16	  25
  16	  35
  16	  36
  16	  38
  16	  42
  16	  45
  16	  50
  16	  51
  16	  58
  16	  64
  16	  66
  16	  67
  16	  70
  16	  72
  16	  77
  16	  80
  16	  94
  16	  95
  16	  96
  16	  98
  16	 101
  16	 102
  16	 104
  16	 106
  16	 111
  16	 116
  16	 118
  17	  21
  17	  23
  17	  29
  17	  30
  17	  38
  17	  39
  17	  40
  17	  42
  17	  60
  17	  71
  17	  80
  17	  82
  17	  98
  17	 101
  17	 112
  17	 118
  18	  19
  18	  21
  18	  25
  18	  35
  18	  41
  18	  53
  18	  56
  18	  59
  18	  60
  18	  64
  18	  65
  18	  75
  18	  77
  18	  83
  18	  92
  18	  94
  18	  96
  18	  97
  18	 104
  18	 110
  18	 115
  18	 118
  18	 119
  19	  25
  19	  34
  19	  41
  19	  64
  19	  78
  19	  82
  19	  83
  19	  89
  19	  93
  19	  98
  19	 101
  19	 105
  19	 106
  20	  40
  20	  41
  20	  45
  20	  47
  20	  48
  20	  49
  20	  51
  20	  58
  20	  59
  20	  64
  20	  65
  20	  66
  20	  67
  20	  69
  20	  75
  20	  79
  20	  80
  20	  81
  20	  87
  20	  89
  20	  99
  20	 100
  20	 115
  21	  22
  21	  27
  21	  30
  21	  34
  21	  38
  21	  39
  21	  42
  21	  43
  21	  44
  21	  49
  21	  53
  21	  54
  21	  55
  21	  57
  21	  58
  21	  68
  21	  72
  21	  77
  21	  79
  21	  86
  21	  91
  21	 102
  21	 104
  21	 115
  22	  25
  22	  35
  22	  40
  22	  42
  22	  44
  22	  45
  22	  56
  22	  76
  22	  86
  22	  88
  22	  93
  22	  98
  22	 105
  22	 117
  23	  28
  23	  31
  23	  37
  23	  41
  23	  48
  23	  55
  23	  56
  23	  65
  23	  75
  23	  94
  23	  95
  23	  96
  23	  99
  23	 100
  23	 102
  23	 105
  23	 106
  23	 112
  23	 115
  23	 118
  23	 119
  24	  25
  24	  28
  24	  29
  24	  36
  24	  39
  24	  65
  24	  80
  24	  91
  24	  93
  24	  97
  24	 106
  24	 118
  24	 119
  25	  28
  25	  42
  25	  45
  25	  54
  25	  69
  25	  84
  25	  91
  25	 101
  25	 111
  25	 118
  26	  35
  26	  36
  26	  41
  26	  50
  26	  58
  26	  60
  26	  68
  26	  69
  26	  70
  26	  87
  26	  91
  26	  92
  26	  95
  26	  96
  26	  99
  26	 102
  26	 108
  26	 114
  26	 116
  27	  29
  27	  40
  27	  43
  27	  44
  27	  52
  27	  55
  27	  57
  27	  77
  27	  78
  27	  81
  27	  84
  27	  92
  27	  95
  27	  98
  27	 109
  27	 112
  27	 116
  27	 118
  28	  37
  28	  38
  28	  40
  28	  45
  28	  46
  28	  47
  28	  50
  28	  53
  28	  56
  28	  58
  28	  66
  28	  70
  28	  75
  28	  78
  28	  80
  28	  93
  28	 109
  28	 114
  29	  31
  29	  49
  29	  60
  29	  61
  29	  68
  29	  69
  29	  70
  29	  72
  29	  74
  29	  75
  29	  77
  29	  78
  29	  79
  29	  82
  29	  90
  29	  93
  29	  94
  29	  96
  29	  98
  29	 100
  29	 101
  29	 102
  29	 106
  29	 116
  30	  49
  30	  51
  30	  58
  30	  59
  30	  74
  30	  77
  30	  92
  30	 104
  30	 106
  30	 107
  30	 113
  30	 118
  30	 119
  31	  35
  31	  37
  31	  38
  31	  40
  31	  42
  31	  48
  31	  56
  31	  61
  31	  69
  31	  71
  31	  73
  31	  77
  31	  78
  31	  82
  31	  90
  31	  99
  31	 100
  31	 103
  31	 109
  31	 114
  31	 116
  32	  34
  32	  36
  32	  48
  32	  50
  32	  60
  32	  65
  32	  72
  32	  80
  32	  90
  32	  97
  32	  98
  32	 101
  32	 102
  32	 107
  32	 112
  32	 115
  32	 118
  33	  37
  33	  41
  33	  47
  33	  48
  33	  56
  33	  60
  33	  64
  33	  69
  33	  79
  33	  81
  33	  83
  33	  86
  33	  93
  33	  94
  33	  96
  33	 116
  34	  38
  34	  49
  34	  50
  34	  54
  34	  57
  34	  61
  34	  62
  34	  64
  34	  65
  34	  67
  34	  75
  34	  89
  34	  91
  34	  95
  34	 102
  34	 116
  34	 117
  35	  42
  35	  49
  35	  50
  35	  59
  35	  61
  35	  68
  35	  71
  35	  75
  35	  76
  35	  81
  35	  85
  35	  86
  35	  96
  35	 101
  35	 102
  35	 104
  35	 106
  35	 107
  35	 116
  35	 117
  36	  40
  36	  44
  36	  46
  36	  53
  36	  56
  36	  62
  36	  64
  36	  66
  36	  71
  36	  89
  36	 100
  36	 104
  36	 105
  36	 107
  36	 109
  36	 110
  36	 119
  37	  38
  37	  57
  37	  70
  37	  72
  37	  74
  37	  84
  37	  96
  37	  99
  37	 100
  37	 101
  37	 103
  37	 106
  37	 114
  38	  39
  38	  40
  38	  41
  38	  56
  38	  60
  38	  61
  38	  62
  38	  69
  38	  72
  38	  81
  38	  90
  38	  93
  38	  94
  38	  95
  38	 100
  38	 104
  38	 108
  38	 115
  38	 119
  39	  42
  39	  43
  39	  46
  39	  49
  39	  54
  39	  57
  39	  63
  39	  71
  39	  74
  39	  75
  39	  86
  39	  88
  39	  97
  39	 103
  39	 108
  39	 113
  40	  45
  40	  46
  40	  54
  40	  61
  40	  63
  40	  65
  40	  68
  40	  70
  40	  71
  40	  80
  40	  81
  40	  84
  40	  87
  40	  88
  40	  90
  40	 106
  40	 107
  40	 110
  40	 118
  41	  43
  41	  47
  41	  49
  41	  50
  41	  76
  41	  84
  41	  89
  41	  94
  41	 104
  41	 114
  41	 117
  41	 119
  42	  44
  42	  48
  42	  49
  42	  52
  42	  58
  42	  66
  42	  67
  42	  72
  42	  83
  42	  89
  42	  93
  42	 101
  42	 103
  42	 105
  42	 108
  43	  56
  43	  61
  43	  66
  43	  71
  43	  74
  43	  79
  43	  91
  43	  93
  43	  94
  43	  95
  43	  99
  43	 105
  43	 117
  43	 118
  44	  67
  44	  72
  44	  74
  44	  80
  44	  94
  44	  95
  44	  97
  44	 100
  44	 109
  44	 112
  44	 113
  45	  51
  45	  53
  45	  59
  45	  61
  45	  72
  45	  78
  45	  81
  45	  85
  45	  89
  45	 105
  45	 108
  45	 109
  45	 110
  45	 111
  45	 119
  46	  47
  46	  52
  46	  60
  46	  62
  46	  64
  46	  67
  46	  68
  46	  73
  46	  74
  46	  75
  46	  77
  46	  82
  46	  83
  46	  86
  46	  88
  46	  94
  46	 103
  46	 107
  46	 117
  47	  55
  47	  64
  47	  65
  47	  72
  47	  79
  47	  86
  47	  90
  47	  97
  47	 103
  47	 108
  47	 109
  47	 113
  47	 117
  47	 119
  48	  51
  48	  53
  48	  57
  48	  74
  48	  81
  48	  86
  48	  88
  48	  90
  48	  93
  48	 113
  48	 119
  49	  50
  49	  52
  49	  59
  49	  65
  49	  66
  49	  68
  49	  69
  49	  87
  49	  88
  49	 102
  49	 114
  49	 115
  49	 119
  50	  52
  50	  56
  50	  57
  50	  62
  50	  63
  50	  66
  50	  67
  50	  72
  50	  73
  50	  79
  50	  87
  50	  89
  50	  90
  50	  96
  50	 103
  50	 110
  51	  54
  51	  60
  51	  67
  51	  75
  51	  77
  51	  79
  51	  84
  51	  86
  51	  90
  51	  97
  51	  98
  51	 106
  51	 110
  51	 112
  51	 113
  51	 114
  52	  53
  52	  54
  52	  55
  52	  56
  52	  62
  52	  69
  52	  73
  52	  74
  52	  76
  52	  81
  52	  85
  52	  89
  52	  90
  52	  93
  52	  94
  52	  95
  52	 104
  52	 110
  52	 113
  52	 114
  52	 115
  52	 116
  52	 118
  53	  56
  53	  57
  53	  60
  53	  67
  53	  70
  53	  71
  53	  74
  53	  75
  53	  77
  53	  79
  53	  80
  53	  82
  53	  88
  53	  91
  53	  94
  53	  97
  53	  99
  53	 103
  53	 106
  53	 112
  53	 114
  54	  59
  54	  72
  54	  73
  54	  83
  54	  85
  54	  91
  54	  98
  54	  99
  54	 108
  54	 109
  54	 110
  54	 118
  55	  57
  55	  58
  55	  64
  55	  67
  55	  69
  55	  71
  55	  72
  55	  76
  55	  83
  55	  91
  55	  97
  55	 106
  55	 107
  55	 108
  55	 112
  55	 114
  55	 117
  56	  67
  56	  73
  56	  74
  56	  76
  56	  79
  56	  91
  56	  95
  56	  98
  56	 105
  56	 106
  56	 108
  57	  58
  57	  62
  57	  67
  57	  75
  57	  77
  57	  80
  57	  82
  57	  86
  57	  94
  57	  97
  57	 100
  57	 111
  57	 118
  58	  62
  58	  68
  58	  74
  58	  75
  58	  76
  58	  77
  58	  81
  58	  82
  58	  87
  58	  89
  58	  90
  58	  91
  58	  98
  58	  99
  58	 106
  58	 107
  58	 114
  59	  62
  59	  67
  59	  73
  59	  75
  59	  77
  59	  85
  59	  95
  59	  97
  59	 104
  59	 114
  59	 117
  60	  62
  60	  71
  60	  72
  60	  81
  60	  97
  60	  98
  60	 106
  60	 109
  60	 110
  60	 118
  60	 119
  61	  64
  61	  65
  61	  67
  61	  70
  61	  76
  61	  83
  61	  86
  61	  94
  61	 101
  61	 110
  61	 113
  61	 118
  61	 119
  62	  65
  62	  67
  62	  72
  62	  76
  62	  86
  62	  88
  62	  89
  62	  90
  62	  92
  62	  94
  62	  97
  62	 102
  62	 105
  62	 106
  62	 115
  62	 116
  62	 118
  63	  65
  63	  70
  63	  79
  63	  80
  63	  82
  63	  91
  63	  95
  63	 107
  63	 111
  63	 113
  63	 116
  63	 117
  64	  65
  64	  67
  64	  70
  64	  72
  64	  73
  64	  78
  64	  82
  64	  95
  64	 104
  64	 110
  64	 114
  64	 115
  64	 119
  65	  90
  65	  91
  65	  98
  65	 101
  65	 109
  65	 112
  65	 114
  65	 115
  66	  67
  66	  73
  66	  77
  66	  78
  66	  82
  66	  91
  66	  93
  66	  99
  66	 102
  66	 105
  66	 106
  66	 111
  66	 113
  66	 114
  66	 118
  67	  69
  67	  73
  67	  93
  67	  96
  67	  97
  67	 105
  67	 111
  67	 113
  67	 115
  67	 119
  68	  73
  68	  74
  68	  89
  68	  90
  68	  94
  68	 100
  68	 101
  68	 105
  68	 111
  68	 114
  68	 115
  68	 117
  69	  70
  69	  71
  69	  73
  69	  85
  69	  87
  69	  94
  69	  97
  69	  99
  69	 105
  69	 117
  70	  72
  70	  81
  70	  83
  70	  85
  70	  86
  70	  96
  70	 101
  70	 105
  70	 106
  70	 115
  70	 119
  71	  72
  71	  74
  71	  81
  71	  83
  71	  94
  71	  97
  71	 100
  71	 102
  71	 103
  71	 104
  71	 105
  71	 106
  71	 108
  71	 109
  71	 113
  72	  74
  72	  82
  72	  84
  72	  87
  72	  91
  72	  94
  72	  97
  72	 100
  72	 105
  72	 110
  72	 112
  73	 100
  73	 103
  73	 104
  73	 110
  73	 111
  73	 117
  74	  76
  74	  84
  74	 103
  74	 109
  74	 113
  74	 116
  75	  76
  75	  85
  75	  88
  75	  93
  75	  94
  75	  96
  75	  98
  75	  99
  75	 101
  75	 107
  75	 108
  75	 113
  75	 114
  75	 116
  76	  78
  76	  84
  76	  96
  76	 101
  76	 108
  76	 111
  76	 116
  77	  80
  77	  84
  77	  88
  77	  92
  77	  97
  77	  99
  77	 100
  77	 111
  78	  80
  78	  96
  78	  99
  78	 101
  78	 107
  78	 112
  78	 114
  79	  82
  79	  88
  79	 100
  79	 102
  79	 104
  79	 106
  79	 109
  79	 112
  80	  81
  80	  83
  80	  86
  80	  88
  80	  91
  80	  93
  80	  96
  80	 101
  80	 109
  80	 114
  81	  84
  81	  89
  81	  95
  81	  96
  81	  98
  81	  99
  81	 102
  81	 103
  81	 104
  81	 105
  81	 116
  81	 118
  81	 119
  82	  93
  82	  94
  82	 103
  82	 111
  82	 114
  82	 115
  82	 117
  83	  88
  83	  90
  83	 111
  83	 113
  84	  85
  84	  88
  84	  92
  84	  97
  84	  99
  84	 105
  84	 110
  84	 111
  84	 114
  84	 115
  84	 116
  84	 119
  85	  95
  85	  96
  85	 102
  85	 107
  85	 108
  85	 112
  85	 115
  86	  87
  86	  89
  86	  95
  86	  97
  86	  99
  86	 101
  86	 106
  86	 110
  86	 119
  87	  88
  87	  95
  87	  98
  87	  99
  87	 101
  87	 105
  87	 112
  87	 119
  88	  90
  88	  92
  88	  93
  88	  96
  88	 104
  88	 108
  89	  96
  89	  97
  89	  98
  89	 105
  89	 116
  89	 118
  90	  91
  90	 105
  90	 107
  90	 108
  91	  96
  91	 109
  91	 118
  92	  99
  92	 100
  92	 101
  92	 105
  92	 107
  92	 113
  92	 114
  92	 117
  92	 118
  93	 109
  94	  95
  94	  99
  94	 109
  94	 111
  94	 115
  95	  99
  95	 103
  95	 109
  95	 111
  95	 113
  95	 115
  95	 116
  95	 117
  95	 118
  96	 102
  96	 105
  96	 106
  96	 107
  96	 113
  97	 116
  98	 101
  98	 113
  98	 116
  99	 101
  99	 103
  99	 114
  99	 115
  99	 119
 100	 102
 100	 105
 100	 118
 101	 110
 101	 114
 101	 116
 101	 118
 102	 103
 102	 104
 102	 107
 102	 109
 102	 112
 102	 116
 102	 118
 103	 110
 104	 110
 104	 114
 105	 110
 107	 109
 107	 116
 107	 117
 107	 119
 108	 109
 108	 110
 108	 116
 109	 113
 109	 115
 109	 118
 109	 119
 110	 113
 110	 114
 110	 119
 111	 117
 112	 114
 113	 118
 114	 118
 115	 118
 115	 119
 116	 117
 116	 118
 117	 119
;
